32	4
15	11	19	16
0	0	0	0	0	1	2
8	0	1	0	16	1	3
10	0	5	1	0	2	4	15
3	5	0	0	6	2	5	13
2	0	0	1	1	1	6
2	0	5	6	0	1	7
10	0	1	6	0	1	8
8	1	0	1	0	1	9
1	0	0	8	2	1	10
3	0	4	0	1	1	11
3	5	0	1	0	1	12
10	6	0	0	2	4	14	29	30	31
6	4	1	0	0	4	16	29	30	31
6	0	4	7	0	1	16
6	0	0	8	6	1	16
7	0	4	0	1	1	17
7	1	0	0	3	1	18
3	0	7	6	0	1	19
3	0	1	0	1	1	20
4	1	0	0	7	1	21
4	0	4	0	1	1	22
6	4	0	5	0	1	23
4	2	1	0	0	2	24	28
10	6	0	0	11	1	25
10	0	1	0	1	1	26
3	5	0	0	1	1	27
9	0	1	7	0	1	32
6	1	1	0	0	1	32
6	4	0	8	0	1	32
7	7	0	5	0	1	32
10	4	0	1	0	1	32
0	0	0	0	0	0
